outputs/rc101.txt.out
filename: RC101
Vehicles: 25, Capacity: 200
Total customers : 101
No of routes: 38
Route #1: 90
Route #2: 69 98 53
Route #3: 88 60
Route #4: 78
Route #5: 12 11 10
Route #6: 9 13
Route #7: 14 47 15 16 17
Route #8: 73 79
Route #9: 7 6
Route #10: 2 8 46 4
Route #11: 45 5 3 1
Route #12: 55 100 70
Route #13: 65 82 99
Route #14: 52 57 86 74
Route #15: 87
Route #16: 59 97 58
Route #17: 75 77 25
Route #18: 23 21 48
Route #19: 19 49 20
Route #20: 22 24
Route #21: 18 66
Route #22: 83 80
Route #23: 91
Route #24: 92 94 93
Route #25: 96 71 54
Route #26: 81
Route #27: 61 68
Route #28: 72 41
Route #29: 39 38 40 37
Route #30: 36 35
Route #31: 42 44 43
Route #32: 95 62 67 34 50
Route #33: 31 29 27 26
Route #34: 28 30 32
Route #35: 33 56
Route #36: 64 85 84
Route #37: 51
Route #38: 63 76 89
Cost 2809
